Maximize
  3.5062048505330476e-04 Z_64_0_0 + 0.015342283517145 Z_64_0_1
   + 0.7302329063416299 Z_64_0_2 + 0.00716551283221948 Z_64_0_3
   + 0.1469086768239523 Z_64_0_4
Subject To
 constraint1_640: Z_64_0_0 + Z_64_0_1 + Z_64_0_2 + Z_64_0_3 + Z_64_0_4
   <= 1
 constraint2_640: Z_64_0_0 <= 1
 constraint2_641: Z_64_0_1 <= 1
 constraint2_642: Z_64_0_2 <= 1
 constraint2_643: Z_64_0_3 <= 1
Bounds
Binaries
 Z_64_0_0 Z_64_0_1 Z_64_0_2 Z_64_0_3 Z_64_0_4
End
